c generated by sgen3tocnf
c nLits = 621
c actual nVars = 207
c Command: sgen3tocnf 70 1 0 0 210 3 1 0 /dev/null
p cnf 210 277
-25 -118 0
-25 -193 0
-118 -193 0
-88 -67 0
-88 -148 0
-67 -148 0
-68 -4 0
-68 -65 0
-4 -65 0
-109 -181 0
-109 -139 0
-181 -139 0
-55 -70 0
-55 -16 0
-70 -16 0
-43 -172 0
-43 -142 0
-172 -142 0
-37 -184 0
-37 -13 0
-184 -13 0
-76 -97 0
-76 -31 0
-97 -31 0
-10 -46 0
-10 -112 0
-46 -112 0
-32 -38 0
-32 -1 0
-38 -1 0
-182 -127 0
-182 -22 0
-127 -22 0
-52 -14 0
-52 -154 0
-14 -154 0
-7 -23 0
-7 -77 0
-23 -77 0
-73 -205 0
-73 -53 0
-205 -53 0
-79 -113 0
-79 -71 0
-113 -71 0
-124 -44 0
-124 -34 0
-44 -34 0
-15 -94 0
-15 -69 0
-94 -69 0
-2 -121 0
-2 -187 0
-121 -187 0
-136 -160 0
-136 -206 0
-160 -206 0
-128 -208 0
-128 -161 0
-208 -161 0
-115 -157 0
-115 -82 0
-157 -82 0
-119 -188 0
-119 -19 0
-188 -19 0
-173 -58 0
-173 -56 0
-58 -56 0
-189 -91 0
-189 -190 0
-91 -190 0
-72 -62 0
-72 -137 0
-62 -137 0
-40 -178 0
-40 -8 0
-178 -8 0
-130 -143 0
-130 -41 0
-143 -41 0
-162 -106 0
-162 -110 0
-106 -110 0
-194 -149 0
-194 -179 0
-149 -179 0
-133 -196 0
-133 -107 0
-196 -107 0
-59 -145 0
-59 -92 0
-145 -92 0
-83 -169 0
-83 -11 0
-169 -11 0
-155 -195 0
-155 -60 0
-195 -60 0
-207 -166 0
-207 -100 0
-166 -100 0
-200 -134 0
-200 -49 0
-134 -49 0
-209 -35 0
-209 -95 0
-35 -95 0
-170 -74 0
-170 -98 0
-74 -98 0
-85 -20 0
-85 -210 0
-20 -210 0
-185 -103 0
-185 -26 0
-103 -26 0
-28 -89 0
-28 -131 0
-89 -131 0
-144 -27 0
-144 -129 0
-27 -129 0
-122 -140 0
-122 -104 0
-140 -104 0
-47 -156 0
-47 -116 0
-156 -116 0
-202 -57 0
-202 -175 0
-57 -175 0
-50 -33 0
-50 -86 0
-33 -86 0
-93 -87 0
-93 -125 0
-87 -125 0
-146 -12 0
-146 -167 0
-12 -167 0
-108 -132 0
-108 -48 0
-132 -48 0
-114 -3 0
-114 -135 0
-3 -135 0
-96 -78 0
-96 -123 0
-78 -123 0
-66 -54 0
-66 -197 0
-54 -197 0
-24 -29 0
-24 -151 0
-29 -151 0
-152 -84 0
-152 -174 0
-84 -174 0
-21 -191 0
-21 -30 0
-191 -30 0
-180 -17 0
-180 -163 0
-17 -163 0
-99 -42 0
-99 -147 0
-42 -147 0
-158 -203 0
-158 -186 0
-203 -186 0
-176 -111 0
-176 -5 0
-111 -5 0
-101 -164 0
-101 -39 0
-164 -39 0
-150 -177 0
-150 -171 0
-177 -171 0
-6 -138 0
-6 -80 0
-138 -80 0
-168 -201 0
-168 -75 0
-201 -75 0
-192 -102 0
-192 -120 0
-102 -120 0
-105 -9 0
-105 -204 0
-9 -204 0
-198 -117 0
-198 -63 0
-117 -63 0
-18 -153 0
-18 -159 0
-153 -159 0
-141 -81 0
-141 -45 0
-81 -45 0
-165 -126 0
-165 -90 0
-126 -90 0
-36 -51 0
-36 -183 0
-51 -183 0
2 3 1 0
6 4 5 0
7 9 8 0
10 12 11 0
15 14 13 0
18 17 16 0
21 20 19 0
24 23 22 0
25 27 26 0
28 29 30 0
32 33 31 0
36 35 34 0
37 38 39 0
40 42 41 0
43 44 45 0
47 46 48 0
50 51 49 0
52 54 53 0
55 57 56 0
59 58 60 0
62 63 0
66 65 0
68 67 69 0
72 70 71 0
73 74 75 0
76 78 77 0
79 81 80 0
83 84 82 0
85 87 86 0
88 89 90 0
93 91 92 0
96 94 95 0
99 97 98 0
101 102 100 0
105 103 104 0
108 106 107 0
109 111 110 0
114 113 112 0
115 117 116 0
119 118 120 0
122 121 123 0
124 126 125 0
128 127 129 0
130 132 131 0
133 134 135 0
136 138 137 0
141 140 139 0
144 143 142 0
146 145 147 0
150 149 148 0
152 153 151 0
155 156 154 0
158 157 159 0
162 160 161 0
165 164 163 0
168 166 167 0
170 169 171 0
173 172 174 0
176 177 175 0
180 178 179 0
182 181 183 0
185 184 186 0
189 188 187 0
192 191 190 0
194 195 193 0
198 196 197 0
200 201 0
202 203 204 0
207 205 206 0
209 208 210 0
